120
150
97
20
66
46
51
75
85
93
97
36
44
75
57
33
21
26
100
21
36
50
48
57
98
26
64
39
45
31
85
52
64
64
43
100
43
94
34
29
82
75
56
80
39
81
47
39
21
89
34
29
64
85
21
35
31
36
98
28
85
52
39
63
24
61
85
31
88
26
34
38
43
77
79
29
89
43
31
59
52
57
100
39
28
48
45
48
72
45
36
88
26
52
69
98
33
69
29
52
81
24
71
88
26
92
33
46
93
64
59
29
57
85
66
57
89
39
57
70
45
80
